solution status: optimal solution found
objective value:                     238491.073132576
d11(0,0)                                            1 	(obj:0)
d11(1,1)                                            1 	(obj:0)
d11(1,2)                                            1 	(obj:0)
d11(2,3)                                            1 	(obj:0)
d11(2,5)                                            1 	(obj:0)
d11(3,7)                                            1 	(obj:0)
d11(3,8)                                            1 	(obj:0)
d11(3,9)                                            1 	(obj:0)
d11(3,10)                                           1 	(obj:0)
d11(3,11)                                           1 	(obj:0)
d11(3,12)                                           1 	(obj:0)
d11(3,13)                                           1 	(obj:0)
d11(3,14)                                           1 	(obj:0)
d11(4,15)                                           1 	(obj:0)
d11(4,17)                                           1 	(obj:0)
d11(4,18)                                           1 	(obj:0)
d11(4,19)                                           1 	(obj:0)
d11(4,20)                                           1 	(obj:0)
d11(4,21)                                           1 	(obj:0)
d11(4,22)                                           1 	(obj:0)
d11(4,23)                                           1 	(obj:0)
d11(4,24)                                           1 	(obj:0)
d11(4,25)                                           1 	(obj:0)
d11(4,26)                                           1 	(obj:0)
d11(4,27)                                           1 	(obj:0)
d11(4,28)                                           1 	(obj:0)
d11(4,29)                                           1 	(obj:0)
d11(4,30)                                           1 	(obj:0)
d11(5,31)                                           1 	(obj:0)
d11(5,32)                                           1 	(obj:0)
d11(5,33)                                           1 	(obj:0)
d11(5,34)                                           1 	(obj:0)
d11(5,35)                                           1 	(obj:0)
d11(5,36)                                           1 	(obj:0)
d11(5,37)                                           1 	(obj:0)
d11(5,38)                                           1 	(obj:0)
d11(5,39)                                           1 	(obj:0)
d11(5,40)                                           1 	(obj:0)
d11(5,41)                                           1 	(obj:0)
d11(5,42)                                           1 	(obj:0)
d11(5,43)                                           1 	(obj:0)
d11(5,45)                                           1 	(obj:0)
d11(5,46)                                           1 	(obj:0)
d11(5,47)                                           1 	(obj:0)
d11(5,48)                                           1 	(obj:0)
d11(5,49)                                           1 	(obj:0)
d11(5,50)                                           1 	(obj:0)
d11(5,51)                                           1 	(obj:0)
d11(5,52)                                           1 	(obj:0)
d11(5,53)                                           1 	(obj:0)
d11(5,54)                                           1 	(obj:0)
d11(5,55)                                           1 	(obj:0)
d11(5,56)                                           1 	(obj:0)
d11(5,57)                                           1 	(obj:0)
d11(5,58)                                           1 	(obj:0)
d11(5,59)                                           1 	(obj:0)
d11(5,61)                                           1 	(obj:0)
d11(5,62)                                           1 	(obj:0)
d11(6,63)                                           1 	(obj:0)
d11(6,64)                                           1 	(obj:0)
d11(6,65)                                           1 	(obj:0)
d11(6,66)                                           1 	(obj:0)
d11(6,67)                                           1 	(obj:0)
d11(6,68)                                           1 	(obj:0)
d11(6,69)                                           1 	(obj:0)
d11(6,70)                                           1 	(obj:0)
d11(6,71)                                           1 	(obj:0)
d11(6,72)                                           1 	(obj:0)
d11(6,73)                                           1 	(obj:0)
d11(6,74)                                           1 	(obj:0)
d11(6,75)                                           1 	(obj:0)
d11(6,76)                                           1 	(obj:0)
d11(6,77)                                           1 	(obj:0)
d11(6,78)                                           1 	(obj:0)
d11(6,79)                                           1 	(obj:0)
d11(6,80)                                           1 	(obj:0)
d11(6,81)                                           1 	(obj:0)
d11(6,82)                                           1 	(obj:0)
d11(6,83)                                           1 	(obj:0)
d11(6,84)                                           1 	(obj:0)
d11(6,85)                                           1 	(obj:0)
d11(6,86)                                           1 	(obj:0)
d11(6,87)                                           1 	(obj:0)
d11(6,88)                                           1 	(obj:0)
d11(6,89)                                           1 	(obj:0)
d11(6,90)                                           1 	(obj:0)
d11(6,91)                                           1 	(obj:0)
d11(6,92)                                           1 	(obj:0)
d11(6,93)                                           1 	(obj:0)
d11(6,94)                                           1 	(obj:0)
d11(6,95)                                           1 	(obj:0)
d11(6,96)                                           1 	(obj:0)
d11(6,97)                                           1 	(obj:0)
d11(6,98)                                           1 	(obj:0)
d11(6,99)                                           1 	(obj:0)
d11(6,100)                                          1 	(obj:0)
d11(6,101)                                          1 	(obj:0)
d11(6,102)                                          1 	(obj:0)
d11(6,103)                                          1 	(obj:0)
d11(6,104)                                          1 	(obj:0)
d11(6,105)                                          1 	(obj:0)
d11(6,106)                                          1 	(obj:0)
d11(6,107)                                          1 	(obj:0)
d11(6,108)                                          1 	(obj:0)
d11(6,109)                                          1 	(obj:0)
d11(6,110)                                          1 	(obj:0)
d11(6,111)                                          1 	(obj:0)
d11(6,112)                                          1 	(obj:0)
d11(6,113)                                          1 	(obj:0)
d11(6,114)                                          1 	(obj:0)
d11(6,115)                                          1 	(obj:0)
d11(6,116)                                          1 	(obj:0)
d11(6,117)                                          1 	(obj:0)
d11(6,118)                                          1 	(obj:0)
d11(6,119)                                          1 	(obj:0)
d11(6,120)                                          1 	(obj:0)
d11(6,121)                                          1 	(obj:0)
d11(6,122)                                          1 	(obj:0)
d11(6,123)                                          1 	(obj:0)
d11(6,124)                                          1 	(obj:0)
d11(6,125)                                          1 	(obj:0)
d11(6,126)                                          1 	(obj:0)
d12(2,4)                                            1 	(obj:0)
d12(2,6)                                            1 	(obj:0)
d21(5,31)                                           1 	(obj:0)
d21(5,32)                                           1 	(obj:0)
d21(5,33)                                           1 	(obj:0)
d21(5,35)                                           1 	(obj:0)
d21(5,39)                                           1 	(obj:0)
d21(5,47)                                           1 	(obj:0)
d21(6,63)                                           1 	(obj:0)
d21(6,64)                                           1 	(obj:0)
d21(6,65)                                           1 	(obj:0)
d21(6,66)                                           1 	(obj:0)
d21(6,67)                                           1 	(obj:0)
d21(6,68)                                           1 	(obj:0)
d21(6,69)                                           1 	(obj:0)
d21(6,71)                                           1 	(obj:0)
d21(6,72)                                           1 	(obj:0)
d21(6,73)                                           1 	(obj:0)
d21(6,75)                                           1 	(obj:0)
d21(6,79)                                           1 	(obj:0)
d21(6,80)                                           1 	(obj:0)
d21(6,81)                                           1 	(obj:0)
d21(6,82)                                           1 	(obj:0)
d21(6,83)                                           1 	(obj:0)
d21(6,84)                                           1 	(obj:0)
d21(6,85)                                           1 	(obj:0)
d21(6,87)                                           1 	(obj:0)
d21(6,88)                                           1 	(obj:0)
d21(6,89)                                           1 	(obj:0)
d21(6,91)                                           1 	(obj:0)
d21(6,95)                                           1 	(obj:0)
d21(6,96)                                           1 	(obj:0)
d21(6,97)                                           1 	(obj:0)
d21(6,99)                                           1 	(obj:0)
d21(6,103)                                          1 	(obj:0)
d21(6,105)                                          1 	(obj:0)
d21(6,111)                                          1 	(obj:0)
d21(6,112)                                          1 	(obj:0)
d21(6,113)                                          1 	(obj:0)
d21(6,115)                                          1 	(obj:0)
d21(6,119)                                          1 	(obj:0)
STE(1,1)                             8484.75010111118 	(obj:0)
STE(0,0)                                        11025 	(obj:0)
STE(1,2)                                        10143 	(obj:0)
STE(2,3)                             7602.75010111118 	(obj:0)
STE(2,4)                             8918.96418698765 	(obj:0)
STE(2,5)                             9261.00000000006 	(obj:0)
STE(2,6)                             10577.2140858765 	(obj:0)
STE(3,7)                              4851.0000000001 	(obj:0)
STE(3,8)                             6509.24989888892 	(obj:0)
STE(3,9)                             6167.21408587657 	(obj:0)
STE(3,10)                            7825.46398476531 	(obj:0)
STE(3,11)                             6509.2498988888 	(obj:0)
STE(3,12)                             8167.4997977778 	(obj:0)
STE(3,13)                            7825.46398476538 	(obj:0)
STE(3,14)                             9483.7138836542 	(obj:0)
STE(4,15)                            2310.75010111122 	(obj:0)
STE(4,16)                             3969.0000000001 	(obj:0)
STE(4,17)                            3969.00000000004 	(obj:0)
STE(4,18)                            5627.24989888885 	(obj:0)
STE(4,19)                            3626.96418698769 	(obj:0)
STE(4,20)                            5285.21408587663 	(obj:0)
STE(4,21)                            5285.21408587643 	(obj:0)
STE(4,22)                            6943.46398476531 	(obj:0)
STE(4,23)                            3968.99999999992 	(obj:0)
STE(4,24)                             5627.2498988888 	(obj:0)
STE(4,25)                            5627.24989888892 	(obj:0)
STE(4,26)                             7285.4997977778 	(obj:0)
STE(4,27)                            5285.21408587651 	(obj:0)
STE(4,28)                            6943.46398476538 	(obj:0)
STE(4,29)                            6943.46398476532 	(obj:0)
STE(4,30)                             8601.7138836542 	(obj:0)
STE(5,31)                           -229.499797777652 	(obj:0)
STE(5,32)                            1428.75010111122 	(obj:0)
STE(5,33)                            1428.75010111123 	(obj:0)
STE(5,34)                             3087.0000000001 	(obj:0)
STE(5,35)                            1428.75010111117 	(obj:0)
STE(5,36)                            3086.99999999998 	(obj:0)
STE(5,37)                            3086.99999999998 	(obj:0)
STE(5,38)                             4745.2498988888 	(obj:0)
STE(5,39)                            1086.71428809882 	(obj:0)
STE(5,40)                            2744.96418698764 	(obj:0)
STE(5,41)                            2744.96418698776 	(obj:0)
STE(5,42)                            4403.21408587663 	(obj:0)
STE(5,43)                            2744.96418698756 	(obj:0)
STE(5,44)                            4403.21408587643 	(obj:0)
STE(5,45)                            4403.21408587644 	(obj:0)
STE(5,46)                            6061.46398476526 	(obj:0)
STE(5,47)                            1428.75010111105 	(obj:0)
STE(5,48)                            3086.99999999992 	(obj:0)
STE(5,49)                            3086.99999999993 	(obj:0)
STE(5,50)                             4745.2498988888 	(obj:0)
STE(5,51)                            3087.00000000005 	(obj:0)
STE(5,52)                            4745.24989888886 	(obj:0)
STE(5,53)                            4745.24989888892 	(obj:0)
STE(5,54)                            6403.49979777786 	(obj:0)
STE(5,55)                            2744.96418698763 	(obj:0)
STE(5,56)                            4403.21408587645 	(obj:0)
STE(5,57)                            4403.21408587651 	(obj:0)
STE(5,58)                            6061.46398476533 	(obj:0)
STE(5,59)                            4403.21408587645 	(obj:0)
STE(5,60)                            6061.46398476532 	(obj:0)
STE(5,61)                            6061.46398476533 	(obj:0)
STE(5,62)                            7719.71388365414 	(obj:0)
STE(6,63)                           -2769.74969666645 	(obj:0)
STE(6,64)                           -1111.49979777763 	(obj:0)
STE(6,65)                           -1111.49979777758 	(obj:0)
STE(6,66)                            546.750101111219 	(obj:0)
STE(6,67)                           -1111.49979777757 	(obj:0)
STE(6,68)                            546.750101111245 	(obj:0)
STE(6,69)                            546.750101111299 	(obj:0)
STE(6,70)                             2205.0000000001 	(obj:0)
STE(6,71)                           -1111.49979777763 	(obj:0)
STE(6,72)                            546.750101111166 	(obj:0)
STE(6,73)                            546.750101111183 	(obj:0)
STE(6,74)                                        2205 	(obj:0)
STE(6,75)                            546.750101111184 	(obj:0)
STE(6,76)                                        2205 	(obj:0)
STE(6,77)                                        2205 	(obj:0)
STE(6,78)                             3863.2498988888 	(obj:0)
STE(6,79)                           -1453.53561078998 	(obj:0)
STE(6,80)                            204.714288098818 	(obj:0)
STE(6,81)                            204.714288098836 	(obj:0)
STE(6,82)                            1862.96418698765 	(obj:0)
STE(6,83)                            204.714288098959 	(obj:0)
STE(6,84)                            1862.96418698778 	(obj:0)
STE(6,85)                            1862.96418698783 	(obj:0)
STE(6,86)                            3521.21408587665 	(obj:0)
STE(6,87)                            204.714288098758 	(obj:0)
STE(6,88)                            1862.96418698756 	(obj:0)
STE(6,89)                            1862.96418698763 	(obj:0)
STE(6,90)                            3521.21408587645 	(obj:0)
STE(6,91)                            1862.96418698764 	(obj:0)
STE(6,92)                            3521.21408587644 	(obj:0)
STE(6,93)                            3521.21408587645 	(obj:0)
STE(6,94)                            5179.46398476526 	(obj:0)
STE(6,95)                           -1111.49979777775 	(obj:0)
STE(6,96)                            546.750101111067 	(obj:0)
STE(6,97)                             546.75010111112 	(obj:0)
STE(6,98)                            2204.99999999994 	(obj:0)
STE(6,99)                            546.750101111129 	(obj:0)
STE(6,100)                           2204.99999999999 	(obj:0)
STE(6,101)                                       2205 	(obj:0)
STE(6,102)                           3863.24989888882 	(obj:0)
STE(6,103)                           546.750101111245 	(obj:0)
STE(6,104)                           2205.00000000005 	(obj:0)
STE(6,105)                           2205.00000000006 	(obj:0)
STE(6,106)                           3863.24989888886 	(obj:0)
STE(6,107)                           2205.00000000013 	(obj:0)
STE(6,108)                           3863.24989888894 	(obj:0)
STE(6,109)                           3863.24989888906 	(obj:0)
STE(6,110)                           5521.49979777786 	(obj:0)
STE(6,111)                           204.714288098834 	(obj:0)
STE(6,112)                            1862.9641869877 	(obj:0)
STE(6,113)                           1862.96418698765 	(obj:0)
STE(6,114)                           3521.21408587645 	(obj:0)
STE(6,115)                           1862.96418698771 	(obj:0)
STE(6,116)                           3521.21408587653 	(obj:0)
STE(6,117)                           3521.21408587653 	(obj:0)
STE(6,118)                           5179.46398476527 	(obj:0)
STE(6,119)                           1862.96418698765 	(obj:0)
STE(6,120)                           3521.21408587645 	(obj:0)
STE(6,121)                           3521.21408587652 	(obj:0)
STE(6,122)                           5179.46398476534 	(obj:0)
STE(6,123)                           3521.21408587653 	(obj:0)
STE(6,124)                           5179.46398476535 	(obj:0)
STE(6,125)                           5179.46398476534 	(obj:0)
STE(6,126)                           6837.71388365414 	(obj:0)
y1(6,99)                             1492.42490899992 	(obj:0)
y1(6,101)                            1492.42490899992 	(obj:0)
y1(6,103)                            1492.42490899992 	(obj:0)
y1(6,105)                            1492.42490899992 	(obj:0)
y1(6,107)                            1492.42490899992 	(obj:0)
y1(6,109)                            1492.42490899992 	(obj:0)
y1(6,111)                            1492.42490899992 	(obj:0)
y1(6,113)                            1492.42490899992 	(obj:0)
y1(6,115)                            1492.42490899992 	(obj:0)
y1(6,117)                            1492.42490899992 	(obj:0)
y1(6,119)                            1492.42490899992 	(obj:0)
y1(6,121)                            1492.42490899992 	(obj:0)
y1(6,123)                            1492.42490899992 	(obj:0)
y1(6,125)                            1492.42490899992 	(obj:0)
BG(5)                                723.522421037851 	(obj:10)
BG(6)                                1149.93060391278 	(obj:10)
WB(1)                                3259.55177567504 	(obj:0)
AVE(1)                               3259.55177567504 	(obj:0)
WB(2)                                3259.55588804169 	(obj:0)
AVE(2)                               3259.55588804169 	(obj:0)
WB(3)                                3579.36165209166 	(obj:0)
AVE(3)                               3579.36165209166 	(obj:0)
WB(4)                                3579.36576445831 	(obj:0)
AVE(4)                               3579.36576445831 	(obj:0)
AVE(5)                               3472.77007794174 	(obj:0)
AVE(6)                                3046.3618950668 	(obj:0)
WG(5)                                3472.77007794174 	(obj:10)
WG(6)                                 3046.3618950668 	(obj:10)
BG(1)                                4196.29249897957 	(obj:10)
BG(2)                                2673.40993877555 	(obj:10)
BG(3)                                4390.52737857144 	(obj:10)
BG(4)                                4196.29249897959 	(obj:10)
y1(1,1)                              1492.42490899994 	(obj:0)
y1(3,7)                              1682.77509099998 	(obj:0)
y1(3,8)                               190.35018200004 	(obj:0)
y1(3,9)                              1682.77509099998 	(obj:0)
y1(3,10)                              190.35018200011 	(obj:0)
y1(3,11)                             1682.77509100014 	(obj:0)
y1(3,12)                              190.35018200004 	(obj:0)
y1(3,13)                             1682.77509099998 	(obj:0)
y1(3,14)                              190.35018200004 	(obj:0)
y1(4,15)                             1492.42490899999 	(obj:0)
y1(4,17)                             1492.42490899999 	(obj:0)
y1(4,19)                             1492.42490899999 	(obj:0)
y1(4,21)                             1492.42490899999 	(obj:0)
y1(4,23)                             1492.42490899999 	(obj:0)
y1(4,25)                             1492.42490899999 	(obj:0)
y1(4,27)                             1492.42490899999 	(obj:0)
y1(4,29)                             1492.42490899999 	(obj:0)
y1(5,31)                             1492.42490899998 	(obj:0)
y1(5,33)                             1492.42490899998 	(obj:0)
y1(5,35)                             1492.42490899998 	(obj:0)
y1(5,37)                             1492.42490899998 	(obj:0)
y1(5,39)                             1492.42490899998 	(obj:0)
y1(5,41)                             1492.42490899998 	(obj:0)
y1(5,43)                             1492.42490899998 	(obj:0)
y1(5,45)                             1492.42490899998 	(obj:0)
y1(5,47)                             1492.42490899998 	(obj:0)
y1(5,49)                             1492.42490899998 	(obj:0)
y1(5,51)                             1492.42490899998 	(obj:0)
y1(5,53)                             1492.42490899998 	(obj:0)
y1(5,55)                             1492.42490899998 	(obj:0)
y1(5,57)                             1492.42490899998 	(obj:0)
y1(5,59)                             1492.42490899998 	(obj:0)
y1(5,61)                             1492.42490899998 	(obj:0)
y1(6,63)                             1492.42490899992 	(obj:0)
y1(6,65)                             1492.42490899992 	(obj:0)
y1(6,67)                             1492.42490899992 	(obj:0)
y1(6,69)                             1492.42490899992 	(obj:0)
y1(6,71)                             1492.42490899992 	(obj:0)
y1(6,73)                             1492.42490899992 	(obj:0)
y1(6,75)                             1492.42490899992 	(obj:0)
y1(6,77)                             1492.42490899992 	(obj:0)
y1(6,79)                             1492.42490899992 	(obj:0)
y1(6,81)                             1492.42490899992 	(obj:0)
y1(6,83)                             1492.42490899992 	(obj:0)
y1(6,85)                             1492.42490899992 	(obj:0)
y1(6,87)                             1492.42490899992 	(obj:0)
y1(6,89)                             1492.42490899992 	(obj:0)
y1(6,91)                             1492.42490899992 	(obj:0)
y1(6,93)                             1492.42490899992 	(obj:0)
y1(6,95)                             1492.42490899992 	(obj:0)
y1(6,97)                             1492.42490899992 	(obj:0)
y2(2,4)                              1385.48851144891 	(obj:0)
y2(2,6)                              1385.48851144891 	(obj:0)
